sat
(
  (define-fun L () String
    "a")
  (define-fun I () String
    "")
  (define-fun K () String
    "a")
  (define-fun T () String
    "a")
  (define-fun P () String
    "a")
  (define-fun J () String
    "")
  (define-fun O () String
    "")
  (define-fun M () String
    "aaa")
  (define-fun H () String
    "")
  (define-fun V () String
    "aa")
  (define-fun R () String
    "a")
)
